(set-logic QF_S)
(set-option :produce-models true)

(declare-fun s817 () String)
(declare-fun temp1_766_777 () String)
(declare-fun s766 () String)
(declare-fun temp2_766_777 () String)
(declare-fun s782 () String)
(declare-fun s787 () String)
(declare-fun temp2_766_792 () String)
(declare-fun s792 () String)
(declare-fun temp1_766_792 () String)
(declare-fun temp1_766_782 () String)
(declare-fun temp2_766_782 () String)
(declare-fun temp1_766_787 () String)
(declare-fun temp2_766_787 () String)
(declare-fun s777 () String)

(assert (= (str.++ temp1_766_787 temp2_766_787) s766) )
(assert (= (str.++ temp1_766_782 temp2_766_782) s766) )
(assert (= (str.++ temp1_766_777 temp2_766_777) s766) )
(assert (= (str.len temp1_766_777) (str.len s777) ) )
(assert (= (str.len temp2_766_792) (str.len s792) ) )
(assert (not (= s766 s817 )))
(assert (= (str.len temp1_766_787) (str.len s787) ) )
(assert (= (str.++ temp1_766_792 temp2_766_792) s766) )
(assert (not (= s777 temp1_766_777) ) )
(assert (not (= s792 temp2_766_792) ) )
(assert (not (= s782 temp2_766_782) ) )
(assert (not (= s787 temp1_766_787) ) )
(assert (= s766 s817 ))
(assert (= s817 "..." ))
(assert (= (str.len temp2_766_782) (str.len s782) ) )


(check-sat)
(get-model)
